p cnf 12 50 
7 -8 -2 0
11 8 7 0
8 11 4 0
-11 -6 -7 0
-3 5 -4 0
2 6 11 0
-2 8 11 0
4 -1 9 0
-3 -7 8 0
11 -12 -9 0
-12 -8 -3 0
9 5 -11 0
-6 -3 -8 0
-6 -7 -1 0
-5 -12 3 0
-7 4 -8 0
-2 -5 11 0
-3 -1 -11 0
-5 4 -11 0
-8 -1 -5 0
10 -11 1 0
-6 7 -3 0
11 -12 6 0
5 -7 -4 0
-11 -1 -8 0
6 12 3 0
-7 -6 4 0
5 8 -11 0
-3 -11 -7 0
-11 -10 8 0
-6 -4 2 0
-11 3 9 0
12 -5 -10 0
2 6 4 0
-2 -5 12 0
-12 9 -5 0
11 1 7 0
-5 -11 -3 0
-3 -10 -4 0
-3 -4 -11 0
3 8 4 0
3 -4 -2 0
10 1 -5 0
-1 3 11 0
12 6 9 0
-5 7 -3 0
8 -10 3 0
-10 -5 2 0
10 9 1 0
9 -10 7 0
